data;
set K:= K1 K2 K3 K4 K5 K6 K7 ;

set F:= F1 F2 ;

set Q:= Q1 Q2 ;

param T:= 45;
param V: 
	K1  K2  K3  K4  K5  K6  K7  :=
Q1	1   1   1   1   0   0   0   
Q2	0   0   0   0   1   1   1   
; # if resorce k is of type q

param TF:= 
K1 6
K2 6
K3 6
K4 6
K5 12
K6 12
K7 12
; # number of continuous time slots resource can fly

param TR:= 
K1 2
K2 2
K3 2
K4 2
K5 4
K6 4
K7 4
; #  number of continuous time slots resource k needs to rest between flights

param P:= 
K1 36
K2 36
K3 36
K4 36
K5 36
K6 36
K7 36
; #  number of continuous time slots a pilot can be present including rest times for resource k 

param N:= 
K1 4
K2 4
K3 4
K4 4
K5 2
K6 1
K7 2
; # max number of flights resource k can fly in the total time period

param A: 
	K1  K2  K3  K4  K5  K6  K7  :=
1	1   1   1   1   1   0   1   
2	1   1   1   1   1   0   1   
3	1   1   1   1   1   0   1   
4	1   1   1   1   1   0   1   
5	1   1   1   1   1   0   1   
6	1   1   1   1   1   0   1   
7	1   1   1   1   1   0   1   
8	1   1   1   1   1   0   1   
9	1   1   1   1   1   0   1   
10	1   1   1   1   1   0   1   
11	1   1   1   1   1   0   1   
12	1   1   1   1   1   0   1   
13	1   1   1   1   1   0   1   
14	1   1   1   1   1   0   1   
15	1   1   1   1   1   0   1   
16	1   1   1   1   1   0   1   
17	1   1   1   1   1   0   1   
18	1   1   1   1   1   1   1   
19	1   1   1   1   1   1   1   
20	1   1   1   1   1   1   1   
21	1   1   1   1   1   1   1   
22	1   1   1   1   1   1   1   
23	1   1   1   1   1   1   1   
24	1   1   1   1   1   1   1   
25	1   1   1   1   1   1   1   
26	1   1   1   1   1   1   1   
27	1   1   1   1   1   1   1   
28	1   1   1   1   1   1   1   
29	1   1   1   1   1   1   1   
30	1   1   1   1   1   1   1   
31	1   1   1   1   1   1   1   
32	1   1   1   1   1   1   1   
33	1   1   1   1   1   1   1   
34	1   1   1   1   1   1   1   
35	1   1   1   1   1   1   1   
36	1   1   1   1   1   1   1   
37	1   1   1   1   1   1   1   
38	1   1   1   1   1   1   1   
39	1   1   1   1   1   1   1   
40	1   1   1   1   1   1   1   
41	1   1   1   1   1   1   1   
42	1   1   1   1   1   1   1   
43	1   1   1   1   1   1   1   
44	1   1   1   1   1   1   1   
45	1   1   1   1   1   1   1   
; # availability of resorce k in time slot t

param B: 
	F1  F2  :=
Q1	0   1   
Q2	0   0   
; # if front f requires resources of type q

param U: 
	F1  F2  :=
K1	0   0   
K2	0   0   
K3	0   0   
K4	0   0   
K5	2   2   
K6	0   0   
K7	1   1   
; # transit time of resource

param C:= 
K1 900
K2 900
K3 1500
K4 4500
K5 5500
K6 5500
K7 5500
; #  water capacity of resource k

param S:= 
F1 9
F2 10
; # max number of resources that can fly at front f in the same time slot

param D:= 

[*,*,F1 ]:  K1    K2    K3    K4    K5    K6    K7    :=
1           1.60  1.60  1.60  1.28  0.96  0.96  0.96  
2           1.60  1.60  1.60  1.28  0.96  0.96  0.96  
3           1.60  1.60  1.60  1.28  0.96  0.96  0.96  
4           1.60  1.60  1.60  1.28  0.96  0.96  0.96  
5           1.60  1.60  1.60  1.28  0.96  0.96  0.96  
6           1.60  1.60  1.60  1.28  0.96  0.96  0.96  
7           1.60  1.60  1.60  1.28  0.96  0.96  0.96  
8           1.60  1.60  1.60  1.28  0.96  0.96  0.96  
9           1.60  1.60  1.60  1.28  0.96  0.96  0.96  
10          1.60  1.60  1.60  1.28  0.96  0.96  0.96  
11          1.60  1.60  1.60  1.28  0.96  0.96  0.96  
12          1.60  1.60  1.60  1.28  0.96  0.96  0.96  
13          1.60  1.60  1.60  1.28  0.96  0.96  0.96  
14          1.60  1.60  1.60  1.28  0.96  0.96  0.96  
15          1.60  1.60  1.60  1.28  0.96  0.96  0.96  
16          1.60  1.60  1.60  1.28  0.96  0.96  0.96  
17          1.60  1.60  1.60  1.28  0.96  0.96  0.96  
18          1.60  1.60  1.60  1.28  0.96  0.96  0.96  
19          1.60  1.60  1.60  1.28  0.96  0.96  0.96  
20          1.60  1.60  1.60  1.28  0.96  0.96  0.96  
21          1.60  1.60  1.60  1.28  0.96  0.96  0.96  
22          1.60  1.60  1.60  1.28  0.96  0.96  0.96  
23          1.60  1.60  1.60  1.28  0.96  0.96  0.96  
24          1.60  1.60  1.60  1.28  0.96  0.96  0.96  
25          1.52  1.52  1.52  1.21  0.91  0.91  0.91  
26          1.52  1.52  1.52  1.21  0.91  0.91  0.91  
27          1.52  1.52  1.52  1.21  0.91  0.91  0.91  
28          1.52  1.52  1.52  1.21  0.91  0.91  0.91  
29          1.52  1.52  1.52  1.21  0.91  0.91  0.91  
30          1.52  1.52  1.52  1.21  0.91  0.91  0.91  
31          1.52  1.52  1.52  1.21  0.91  0.91  0.91  
32          1.52  1.52  1.52  1.21  0.91  0.91  0.91  
33          1.52  1.52  1.52  1.21  0.91  0.91  0.91  
34          1.60  1.60  1.60  1.28  0.96  0.96  0.96  
35          1.60  1.60  1.60  1.28  0.96  0.96  0.96  
36          1.60  1.60  1.60  1.28  0.96  0.96  0.96  
37          1.60  1.60  1.60  1.28  0.96  0.96  0.96  
38          1.60  1.60  1.60  1.28  0.96  0.96  0.96  
39          1.60  1.60  1.60  1.28  0.96  0.96  0.96  
40          1.60  1.60  1.60  1.28  0.96  0.96  0.96  
41          1.60  1.60  1.60  1.28  0.96  0.96  0.96  
42          1.60  1.60  1.60  1.28  0.96  0.96  0.96  
43          1.60  1.60  1.60  1.28  0.96  0.96  0.96  
44          1.60  1.60  1.60  1.28  0.96  0.96  0.96  
45          1.60  1.60  1.60  1.28  0.96  0.96  0.96  

[*,*,F2 ]:  K1    K2    K3    K4    K5    K6    K7    :=
1           1.44  1.44  1.44  1.14  0.86  0.86  0.86  
2           1.44  1.44  1.44  1.14  0.86  0.86  0.86  
3           1.44  1.44  1.44  1.14  0.86  0.86  0.86  
4           1.44  1.44  1.44  1.14  0.86  0.86  0.86  
5           1.44  1.44  1.44  1.14  0.86  0.86  0.86  
6           1.44  1.44  1.44  1.14  0.86  0.86  0.86  
7           1.44  1.44  1.44  1.14  0.86  0.86  0.86  
8           1.44  1.44  1.44  1.14  0.86  0.86  0.86  
9           1.44  1.44  1.44  1.14  0.86  0.86  0.86  
10          1.44  1.44  1.44  1.14  0.86  0.86  0.86  
11          1.44  1.44  1.44  1.14  0.86  0.86  0.86  
12          1.44  1.44  1.44  1.14  0.86  0.86  0.86  
13          1.44  1.44  1.44  1.14  0.86  0.86  0.86  
14          1.44  1.44  1.44  1.14  0.86  0.86  0.86  
15          1.44  1.44  1.44  1.14  0.86  0.86  0.86  
16          1.44  1.44  1.44  1.14  0.86  0.86  0.86  
17          1.44  1.44  1.44  1.14  0.86  0.86  0.86  
18          1.44  1.44  1.44  1.14  0.86  0.86  0.86  
19          1.44  1.44  1.44  1.14  0.86  0.86  0.86  
20          1.44  1.44  1.44  1.14  0.86  0.86  0.86  
21          1.44  1.44  1.44  1.14  0.86  0.86  0.86  
22          1.44  1.44  1.44  1.14  0.86  0.86  0.86  
23          1.44  1.44  1.44  1.14  0.86  0.86  0.86  
24          1.44  1.44  1.44  1.14  0.86  0.86  0.86  
25          1.36  1.36  1.36  1.09  0.82  0.82  0.82  
26          1.36  1.36  1.36  1.09  0.82  0.82  0.82  
27          1.36  1.36  1.36  1.09  0.82  0.82  0.82  
28          1.36  1.36  1.36  1.09  0.82  0.82  0.82  
29          1.36  1.36  1.36  1.09  0.82  0.82  0.82  
30          1.36  1.36  1.36  1.09  0.82  0.82  0.82  
31          1.36  1.36  1.36  1.09  0.82  0.82  0.82  
32          1.36  1.36  1.36  1.09  0.82  0.82  0.82  
33          1.36  1.36  1.36  1.09  0.82  0.82  0.82  
34          1.44  1.44  1.44  1.14  0.86  0.86  0.86  
35          1.44  1.44  1.44  1.14  0.86  0.86  0.86  
36          1.44  1.44  1.44  1.14  0.86  0.86  0.86  
37          1.44  1.44  1.44  1.14  0.86  0.86  0.86  
38          1.44  1.44  1.44  1.14  0.86  0.86  0.86  
39          1.44  1.44  1.44  1.14  0.86  0.86  0.86  
40          1.44  1.44  1.44  1.14  0.86  0.86  0.86  
41          1.44  1.44  1.44  1.14  0.86  0.86  0.86  
42          1.44  1.44  1.44  1.14  0.86  0.86  0.86  
43          1.44  1.44  1.44  1.14  0.86  0.86  0.86  
44          1.44  1.44  1.44  1.14  0.86  0.86  0.86  
45          1.44  1.44  1.44  1.14  0.86  0.86  0.86  
; # downloads resource k can do at front f in time t if intermediate time slot

param E:= 

[*,*,F1 ]:  K1    K2    K3    K4    K5    K6    K7    :=
1           0.50  0.46  0.00  0.50  0.11  0.37  0.29  
2           0.50  0.46  0.00  0.50  0.11  0.37  0.29  
3           0.50  0.46  0.00  0.50  0.11  0.37  0.29  
4           0.50  0.46  0.00  0.50  0.11  0.37  0.29  
5           0.50  0.46  0.00  0.50  0.11  0.37  0.29  
6           0.50  0.46  0.00  0.50  0.11  0.37  0.29  
7           0.50  0.46  0.00  0.50  0.11  0.37  0.29  
8           0.50  0.46  0.00  0.50  0.11  0.37  0.29  
9           0.50  0.46  0.00  0.50  0.11  0.37  0.29  
10          0.50  0.46  0.00  0.50  0.11  0.37  0.29  
11          0.50  0.46  0.00  0.50  0.11  0.37  0.29  
12          0.50  0.46  0.00  0.50  0.11  0.37  0.29  
13          0.50  0.46  0.00  0.50  0.11  0.37  0.29  
14          0.50  0.46  0.00  0.50  0.11  0.37  0.29  
15          0.50  0.46  0.00  0.50  0.11  0.37  0.29  
16          0.50  0.46  0.00  0.50  0.11  0.37  0.29  
17          0.50  0.46  0.00  0.50  0.11  0.37  0.29  
18          0.50  0.46  0.00  0.50  0.11  0.37  0.29  
19          0.50  0.46  0.00  0.50  0.11  0.37  0.29  
20          0.50  0.46  0.00  0.50  0.11  0.37  0.29  
21          0.50  0.46  0.00  0.50  0.11  0.37  0.29  
22          0.50  0.46  0.00  0.50  0.11  0.37  0.29  
23          0.50  0.46  0.00  0.50  0.11  0.37  0.29  
24          0.50  0.46  0.00  0.50  0.11  0.37  0.29  
25          0.47  0.44  0.00  0.47  0.10  0.36  0.27  
26          0.47  0.44  0.00  0.47  0.10  0.36  0.27  
27          0.47  0.44  0.00  0.47  0.10  0.36  0.27  
28          0.47  0.44  0.00  0.47  0.10  0.36  0.27  
29          0.47  0.44  0.00  0.47  0.10  0.36  0.27  
30          0.47  0.44  0.00  0.47  0.10  0.36  0.27  
31          0.47  0.44  0.00  0.47  0.10  0.36  0.27  
32          0.47  0.44  0.00  0.47  0.10  0.36  0.27  
33          0.47  0.44  0.00  0.47  0.10  0.36  0.27  
34          0.50  0.46  0.00  0.50  0.11  0.37  0.29  
35          0.50  0.46  0.00  0.50  0.11  0.37  0.29  
36          0.50  0.46  0.00  0.50  0.11  0.37  0.29  
37          0.50  0.46  0.00  0.50  0.11  0.37  0.29  
38          0.50  0.46  0.00  0.50  0.11  0.37  0.29  
39          0.50  0.46  0.00  0.50  0.11  0.37  0.29  
40          0.50  0.46  0.00  0.50  0.11  0.37  0.29  
41          0.50  0.46  0.00  0.50  0.11  0.37  0.29  
42          0.50  0.46  0.00  0.50  0.11  0.37  0.29  
43          0.50  0.46  0.00  0.50  0.11  0.37  0.29  
44          0.50  0.46  0.00  0.50  0.11  0.37  0.29  
45          0.50  0.46  0.00  0.50  0.11  0.37  0.29  

[*,*,F2 ]:  K1    K2    K3    K4    K5    K6    K7    :=
1           0.39  0.42  0.14  0.40  0.02  0.35  0.29  
2           0.39  0.42  0.14  0.40  0.02  0.35  0.29  
3           0.39  0.42  0.14  0.40  0.02  0.35  0.29  
4           0.39  0.42  0.14  0.40  0.02  0.35  0.29  
5           0.39  0.42  0.14  0.40  0.02  0.35  0.29  
6           0.39  0.42  0.14  0.40  0.02  0.35  0.29  
7           0.39  0.42  0.14  0.40  0.02  0.35  0.29  
8           0.39  0.42  0.14  0.40  0.02  0.35  0.29  
9           0.39  0.42  0.14  0.40  0.02  0.35  0.29  
10          0.39  0.42  0.14  0.40  0.02  0.35  0.29  
11          0.39  0.42  0.14  0.40  0.02  0.35  0.29  
12          0.39  0.42  0.14  0.40  0.02  0.35  0.29  
13          0.39  0.42  0.14  0.40  0.02  0.35  0.29  
14          0.39  0.42  0.14  0.40  0.02  0.35  0.29  
15          0.39  0.42  0.14  0.40  0.02  0.35  0.29  
16          0.39  0.42  0.14  0.40  0.02  0.35  0.29  
17          0.39  0.42  0.14  0.40  0.02  0.35  0.29  
18          0.39  0.42  0.14  0.40  0.02  0.35  0.29  
19          0.39  0.42  0.14  0.40  0.02  0.35  0.29  
20          0.39  0.42  0.14  0.40  0.02  0.35  0.29  
21          0.39  0.42  0.14  0.40  0.02  0.35  0.29  
22          0.39  0.42  0.14  0.40  0.02  0.35  0.29  
23          0.39  0.42  0.14  0.40  0.02  0.35  0.29  
24          0.39  0.42  0.14  0.40  0.02  0.35  0.29  
25          0.37  0.40  0.14  0.38  0.02  0.33  0.28  
26          0.37  0.40  0.14  0.38  0.02  0.33  0.28  
27          0.37  0.40  0.14  0.38  0.02  0.33  0.28  
28          0.37  0.40  0.14  0.38  0.02  0.33  0.28  
29          0.37  0.40  0.14  0.38  0.02  0.33  0.28  
30          0.37  0.40  0.14  0.38  0.02  0.33  0.28  
31          0.37  0.40  0.14  0.38  0.02  0.33  0.28  
32          0.37  0.40  0.14  0.38  0.02  0.33  0.28  
33          0.37  0.40  0.14  0.38  0.02  0.33  0.28  
34          0.39  0.42  0.14  0.40  0.02  0.35  0.29  
35          0.39  0.42  0.14  0.40  0.02  0.35  0.29  
36          0.39  0.42  0.14  0.40  0.02  0.35  0.29  
37          0.39  0.42  0.14  0.40  0.02  0.35  0.29  
38          0.39  0.42  0.14  0.40  0.02  0.35  0.29  
39          0.39  0.42  0.14  0.40  0.02  0.35  0.29  
40          0.39  0.42  0.14  0.40  0.02  0.35  0.29  
41          0.39  0.42  0.14  0.40  0.02  0.35  0.29  
42          0.39  0.42  0.14  0.40  0.02  0.35  0.29  
43          0.39  0.42  0.14  0.40  0.02  0.35  0.29  
44          0.39  0.42  0.14  0.40  0.02  0.35  0.29  
45          0.39  0.42  0.14  0.40  0.02  0.35  0.29  
; # downloads resource k can do at front f in time t if starting or ending flight

param W: 
	F1        F2        :=
1	147.50    147.50    
2	560.49    560.49    
3	560.49    560.49    
4	560.49    560.49    
5	560.49    560.49    
6	560.49    560.49    
7	560.49    560.49    
8	560.49    560.49    
9	560.49    560.49    
10	560.49    560.49    
11	560.49    560.49    
12	560.49    560.49    
13	560.49    560.49    
14	560.49    560.49    
15	560.49    560.49    
16	560.49    560.49    
17	560.49    560.49    
18	560.49    560.49    
19	648.99    648.99    
20	648.99    648.99    
21	648.99    648.99    
22	648.99    648.99    
23	648.99    648.99    
24	648.99    648.99    
25	648.99    648.99    
26	648.99    648.99    
27	648.99    648.99    
28	648.99    648.99    
29	648.99    648.99    
30	648.99    648.99    
31	648.99    648.99    
32	648.99    648.99    
33	648.99    648.99    
34	648.99    648.99    
35	560.49    560.49    
36	560.49    560.49    
37	560.49    560.49    
38	560.49    560.49    
39	560.49    560.49    
40	560.49    560.49    
41	560.49    560.49    
42	560.49    560.49    
43	560.49    560.49    
44	560.49    560.49    
45	147.50    147.50    
; # water needed at front f in time slot t

param M := 100000000; 

param a1:= 10000000;

param a2:= 100;

param a3:= 0.0001;
